unsat
(:elim-unconstrained  2
 :max-memory          18.42
 :memory              18.33
 :nlsat-arith-var     2
 :nlsat-atoms         10
 :nlsat-bool-var      1
 :nlsat-clauses       6
 :nlsat-conflicts     4
 :nlsat-propagations  14
 :nlsat-stages        4
 :num-allocs          50859
 :rlimit-count        1278
 :solve-eqs-elim-vars 1
 :solve-eqs-steps     1
 :time                0.00
 :total-time          0.01)
